InboundTrucks  = 8;
OutboundTrucks = 5;
InboundDoors   = 2;
OutboundDoors  = 1;
ReleaseTime    = [0,1,4,3,5,1,4,4];
UnloadTime     = [7,10,9,7,15,11,5,15];
LoadTime       = [14,11,7,5,12];
TransferTime   = [| 5,8,8,4,5 | 6,3,3,4,3 | 5,8,2,4,3 | 7,5,6,5,3 | 7,4,2,5,2 | 3,4,5,4,4 | 7,6,6,2,6 | 3,8,8,8,2 |];
